
Gurobi 11.0.0 (win64, C++) logging started Mon Jul 28 20:24:26 2025

Set parameter TokenServer to value "141.76.38.119"
### START HEURISTIC APPROACH APPROACH ###
ProblemVariant: 1
### START PREPROCESSING ###
## Start start solution procedure ##
Start solution with 8 Vehicles and total costs 1464.28 in 49.3182 s.
### END PREPROCESSING ###
Route 0 0-32-10-21-18-19-12-0 : weight util 0.393750 | volume util 0.607822 | infeasible with packing heuristic | feasible with CP model
Route 1 0-4-6-7-5-0 : weight util 0.415000 | volume util 0.627867 | infeasible with packing heuristic | feasible with CP model
Route 2 0-30-31-1-0 : weight util 0.612500 | volume util 0.587933 | infeasible with packing heuristic | feasible with CP model
Route 3 0-13-25-27-16-0 : weight util 0.368750 | volume util 0.660089 | infeasible with packing heuristic | feasible with CP model
Route 4 0-29-28-24-23-22-20-0 : weight util 0.581250 | volume util 0.730800 | infeasible with packing heuristic | feasible with CP model
Route 5 0-14-15-17-26-0 : weight util 0.825000 | volume util 0.565778 | infeasible with packing heuristic | feasible with CP model
Route 6 0-2-11-8-9-3-0 : weight util 0.475000 | volume util 0.568400 | infeasible with packing heuristic | feasible with CP model
